benchmarks_CP/INST_36x36/25/inst36x36_25_3.dzn
S=6;
start=[|
-1,	-1,	-1,	-1,	-1,	11,	2,	-1,	-1,	-1,	30,	-1,	-1,	-1,	-1,	-1,	-1,	-1,	-1,	28,	4,	-1,	5,	21,	-1,	18,	-1,	26,	-1,	-1,	-1,	-1,	-1,	-1,	36,	-1|
-1,	-1,	-1,	-1,	4,	6,	-1,	24,	31,	-1,	-1,	-1,	-1,	-1,	3,	-1,	-1,	30,	-1,	-1,	-1,	-1,	9,	-1,	-1,	-1,	-1,	-1,	-1,	-1,	-1,	21,	-1,	-1,	-1,	-1|
-1,	-1,	-1,	19,	-1,	34,	-1,	-1,	-1,	27,	-1,	22,	-1,	-1,	-1,	-1,	-1,	-1,	36,	-1,	7,	-1,	12,	-1,	-1,	-1,	-1,	-1,	15,	-1,	3,	-1,	-1,	6,	-1,	-1|
-1,	-1,	-1,	-1,	-1,	27,	-1,	29,	-1,	-1,	6,	34,	-1,	-1,	-1,	-1,	-1,	-1,	-1,	-1,	-1,	31,	-1,	-1,	-1,	-1,	-1,	-1,	-1,	2,	-1,	-1,	-1,	-1,	10,	-1|
-1,	-1,	-1,	20,	-1,	-1,	-1,	28,	-1,	-1,	33,	-1,	-1,	-1,	6,	-1,	-1,	-1,	-1,	-1,	-1,	-1,	-1,	-1,	-1,	27,	-1,	-1,	-1,	-1,	-1,	-1,	4,	-1,	-1,	24|
-1,	-1,	36,	-1,	-1,	24,	-1,	-1,	-1,	-1,	12,	-1,	-1,	13,	-1,	-1,	-1,	27,	-1,	-1,	-1,	15,	-1,	-1,	4,	35,	-1,	-1,	-1,	-1,	-1,	11,	-1,	-1,	-1,	8|
-1,	16,	-1,	-1,	-1,	-1,	-1,	-1,	-1,	-1,	-1,	20,	15,	-1,	-1,	-1,	-1,	14,	-1,	-1,	-1,	-1,	-1,	-1,	3,	-1,	-1,	-1,	-1,	-1,	-1,	-1,	-1,	-1,	-1,	-1|
12,	-1,	4,	-1,	-1,	-1,	-1,	-1,	-1,	-1,	-1,	-1,	-1,	-1,	-1,	-1,	-1,	-1,	-1,	-1,	-1,	-1,	36,	-1,	23,	-1,	2,	-1,	-1,	-1,	-1,	-1,	-1,	17,	-1,	27|
-1,	-1,	27,	-1,	-1,	-1,	-1,	-1,	-1,	-1,	18,	-1,	-1,	-1,	-1,	-1,	6,	-1,	-1,	-1,	-1,	-1,	-1,	-1,	-1,	-1,	-1,	-1,	-1,	-1,	16,	-1,	-1,	-1,	-1,	30|
-1,	-1,	-1,	-1,	-1,	-1,	-1,	-1,	29,	-1,	-1,	-1,	-1,	-1,	-1,	-1,	12,	-1,	-1,	-1,	3,	-1,	-1,	10,	34,	-1,	8,	-1,	-1,	5,	-1,	-1,	-1,	7,	23,	-1|
28,	-1,	-1,	25,	-1,	-1,	-1,	-1,	-1,	-1,	10,	-1,	-1,	-1,	-1,	-1,	36,	9,	-1,	-1,	-1,	-1,	-1,	-1,	-1,	7,	-1,	35,	4,	-1,	18,	-1,	-1,	-1,	-1,	-1|
-1,	-1,	-1,	-1,	-1,	-1,	-1,	-1,	-1,	-1,	-1,	3,	-1,	16,	34,	-1,	-1,	29,	-1,	-1,	-1,	-1,	22,	35,	-1,	-1,	-1,	-1,	-1,	-1,	-1,	-1,	-1,	-1,	-1,	-1|
-1,	24,	-1,	-1,	-1,	-1,	-1,	-1,	-1,	14,	-1,	-1,	9,	-1,	-1,	-1,	-1,	-1,	-1,	-1,	-1,	-1,	-1,	-1,	-1,	-1,	-1,	-1,	5,	-1,	-1,	-1,	-1,	-1,	1,	-1|
-1,	-1,	-1,	-1,	15,	20,	25,	1,	28,	31,	-1,	11,	-1,	-1,	-1,	-1,	-1,	-1,	-1,	-1,	-1,	22,	-1,	-1,	-1,	-1,	29,	21,	-1,	19,	-1,	8,	-1,	-1,	33,	-1|
-1,	26,	-1,	-1,	-1,	7,	4,	-1,	-1,	24,	-1,	-1,	-1,	3,	-1,	-1,	17,	-1,	-1,	16,	1,	20,	-1,	-1,	9,	-1,	-1,	-1,	-1,	11,	-1,	-1,	-1,	-1,	-1,	-1|
35,	-1,	-1,	-1,	-1,	-1,	-1,	-1,	-1,	-1,	-1,	-1,	-1,	-1,	-1,	-1,	-1,	21,	-1,	34,	-1,	25,	23,	-1,	-1,	-1,	-1,	-1,	31,	-1,	6,	15,	18,	-1,	-1,	-1|
8,	-1,	-1,	-1,	-1,	-1,	-1,	-1,	-1,	-1,	-1,	-1,	-1,	-1,	-1,	-1,	-1,	-1,	-1,	-1,	31,	10,	27,	26,	-1,	3,	-1,	25,	-1,	28,	-1,	-1,	24,	14,	20,	-1|
16,	-1,	6,	-1,	-1,	-1,	-1,	-1,	27,	-1,	-1,	-1,	-1,	30,	-1,	-1,	-1,	-1,	-1,	-1,	-1,	-1,	28,	2,	15,	-1,	-1,	-1,	-1,	35,	-1,	-1,	-1,	3,	25,	-1|
-1,	-1,	-1,	-1,	23,	-1,	-1,	-1,	-1,	28,	-1,	-1,	4,	17,	22,	-1,	-1,	-1,	-1,	-1,	-1,	-1,	19,	-1,	6,	-1,	-1,	-1,	-1,	26,	-1,	-1,	5,	-1,	-1,	-1|
-1,	-1,	-1,	-1,	22,	-1,	-1,	11,	-1,	7,	-1,	-1,	-1,	12,	-1,	33,	-1,	-1,	-1,	-1,	-1,	34,	-1,	16,	-1,	-1,	-1,	-1,	23,	-1,	-1,	-1,	-1,	-1,	-1,	18|
19,	-1,	-1,	-1,	-1,	-1,	-1,	-1,	-1,	-1,	1,	2,	-1,	-1,	21,	-1,	-1,	-1,	25,	36,	-1,	-1,	-1,	-1,	22,	11,	-1,	5,	-1,	-1,	-1,	-1,	-1,	-1,	-1,	-1|
-1,	-1,	-1,	30,	5,	-1,	-1,	-1,	-1,	-1,	-1,	-1,	-1,	-1,	-1,	-1,	15,	-1,	-1,	-1,	-1,	-1,	-1,	-1,	-1,	-1,	-1,	-1,	25,	-1,	-1,	-1,	36,	-1,	-1,	-1|
1,	-1,	15,	-1,	-1,	-1,	-1,	-1,	-1,	23,	34,	-1,	-1,	-1,	29,	-1,	-1,	-1,	31,	-1,	28,	-1,	-1,	-1,	-1,	-1,	-1,	33,	-1,	24,	-1,	-1,	22,	-1,	-1,	-1|
-1,	-1,	25,	12,	-1,	17,	-1,	30,	-1,	-1,	4,	18,	-1,	-1,	16,	-1,	-1,	11,	-1,	-1,	20,	-1,	-1,	-1,	14,	28,	35,	-1,	36,	13,	1,	-1,	23,	-1,	6,	26|
-1,	-1,	-1,	-1,	-1,	-1,	16,	26,	-1,	-1,	-1,	-1,	-1,	24,	-1,	-1,	20,	-1,	-1,	5,	-1,	-1,	-1,	13,	-1,	-1,	-1,	6,	-1,	-1,	25,	-1,	-1,	-1,	-1,	-1|
-1,	-1,	21,	-1,	-1,	-1,	-1,	-1,	-1,	-1,	-1,	-1,	-1,	-1,	-1,	-1,	-1,	-1,	-1,	-1,	15,	-1,	-1,	14,	-1,	-1,	13,	7,	20,	-1,	-1,	-1,	-1,	-1,	-1,	29|
-1,	-1,	-1,	-1,	-1,	-1,	-1,	-1,	-1,	-1,	-1,	-1,	17,	-1,	2,	-1,	-1,	-1,	-1,	8,	-1,	-1,	-1,	30,	-1,	-1,	-1,	-1,	-1,	23,	22,	-1,	-1,	-1,	31,	-1|
26,	-1,	-1,	-1,	-1,	-1,	12,	-1,	-1,	-1,	-1,	-1,	-1,	-1,	-1,	10,	33,	-1,	-1,	1,	23,	-1,	-1,	-1,	-1,	19,	16,	-1,	-1,	3,	-1,	-1,	-1,	-1,	-1,	6|
-1,	-1,	-1,	7,	-1,	-1,	-1,	-1,	-1,	1,	-1,	-1,	16,	32,	25,	35,	-1,	-1,	-1,	-1,	-1,	-1,	26,	-1,	-1,	5,	30,	24,	-1,	15,	14,	-1,	-1,	-1,	-1,	-1|
15,	28,	-1,	24,	-1,	5,	-1,	-1,	35,	-1,	-1,	25,	-1,	-1,	-1,	-1,	-1,	7,	-1,	-1,	17,	-1,	-1,	-1,	-1,	10,	-1,	-1,	2,	-1,	27,	33,	-1,	-1,	-1,	-1|
-1,	-1,	-1,	4,	24,	-1,	9,	-1,	-1,	-1,	-1,	-1,	21,	-1,	-1,	6,	-1,	20,	23,	12,	-1,	-1,	-1,	-1,	-1,	-1,	-1,	-1,	28,	-1,	-1,	-1,	-1,	22,	-1,	-1|
5,	-1,	13,	31,	-1,	-1,	-1,	-1,	-1,	-1,	29,	-1,	-1,	-1,	-1,	-1,	32,	-1,	-1,	7,	-1,	-1,	-1,	-1,	-1,	-1,	-1,	-1,	-1,	-1,	36,	14,	34,	-1,	15,	9|
-1,	21,	-1,	29,	-1,	26,	-1,	-1,	-1,	15,	-1,	-1,	-1,	-1,	36,	27,	-1,	34,	-1,	-1,	25,	-1,	-1,	-1,	-1,	14,	22,	-1,	17,	-1,	-1,	-1,	6,	-1,	-1,	-1|
-1,	-1,	32,	-1,	33,	-1,	-1,	-1,	14,	-1,	25,	-1,	-1,	-1,	-1,	-1,	-1,	-1,	-1,	-1,	-1,	-1,	-1,	-1,	-1,	-1,	9,	-1,	-1,	-1,	8,	-1,	16,	1,	-1,	-1|
-1,	-1,	19,	-1,	-1,	-1,	-1,	-1,	-1,	32,	-1,	13,	-1,	-1,	-1,	-1,	-1,	-1,	-1,	-1,	-1,	9,	10,	-1,	-1,	-1,	-1,	-1,	-1,	-1,	-1,	4,	-1,	-1,	-1,	-1|
-1,	-1,	-1,	-1,	-1,	-1,	-1,	-1,	-1,	33,	-1,	-1,	-1,	-1,	-1,	-1,	-1,	-1,	-1,	14,	32,	29,	-1,	-1,	27,	-1,	-1,	-1,	21,	-1,	-1,	19,	-1,	35,	18,	-1|];
